Route #1: 89 98 99 62 71
Route #2: 93 75
Route #3: 32 33 53 73 95 24
Route #4: 59 60 82
Route #5: 28 42 78 65 25
Route #6: 44 67 88 40
Route #7: 23 61 100
Route #8: 30 85 11 79
Route #9: 1 70 54
Route #10: 20 41 22 15
Route #11: 87 37 6 49 14
Route #12: 92 9 86
Route #13: 34 64 96 48 26 47 38
Route #14: 5 12 58
Route #15: 7 2 45 43 29 36 72 57
Route #16: 19 97 27
Route #17: 69 16 55 76
Route #18: 52 91 50
Route #19: 8 17
Route #20: 63 77 3
Route #21: 21 56 94 80
Route #22: 18 10 39
Route #23: 35 46 31
Route #24: 81 51 83
Route #25: 68 90 84 66
Route #26: 4 13 74
Cost 27591.0000
Time 16.0003